
  32    4
  10   10   10   10

   0   0   0   0   0   2 2 4 
   4   1   0   1   1   3 11 5 3 
   9   0   1   5   2   2 15 7 
  10   0   4   5   7   2 15 7 
   6   2   0   3   6   1 6 
   3   0   2   2   6   1 7 
   3   4   2   2   0   1 8 
  10   3   4   6   0   1 9 
   7   0   8   3   4   1 10 
   9   5   6   5   0   2 17 12 
   3   2   2   2   0   2 15 12 
   4   5   4   0   4   2 19 13 
   7   4   0   2   4   2 25 14 
   4   5   7   5   0   2 31 16 
   9   0   5   4   7   3 31 28 19 
   9   5   3   0   5   2 28 18 
   8   0   7   5   3   2 28 20 
  10   3   4   7   0   1 20 
   6   7   6   6   0   1 20 
   3   4   5   6   0   3 24 23 21 
  10   3   2   3   0   2 27 22 
   9   8   4   0   1   1 26 
   3   4   4   3   0   1 26 
   1   4   3   3   0   1 26 
   3   4   1   4   0   2 31 30 
   5   4   0   6   2   1 29 
   4   0   6   7   6   1 29 
   5   3   3   2   0   1 29 
   8   4   5   3   0   1 30 
   7   5   2   0   3   1 32
  10   3   0   4   3   1 32
   0   0   0   0   0   0 
